{"lblp_lower": [536.6951497336397, 568.9030303850429, 582.160158643802, 583.4614285714289, 583.7333333333336, 584.2368571428575, 584.8866666666671, 586.0008390269543], "cuttingPlaneBendInfo": [{"tot_cut_value": 0, "TOT_gen_cut": 0, "tot_time_opt": 0, "max_time_opt": 0}, {"tot_cut_value": 0, "TOT_gen_cut": 0, "tot_time_opt": 0, "max_time_opt": 0}, {"tot_cut_value": 0, "TOT_gen_cut": 0, "tot_time_opt": 0, "max_time_opt": 0}, {"tot_cut_value": 0, "TOT_gen_cut": 0, "tot_time_opt": 0, "max_time_opt": 0}, {"tot_cut_value": 0, "TOT_gen_cut": 0, "tot_time_opt": 0, "max_time_opt": 0}, {"tot_cut_value": 0, "TOT_gen_cut": 0, "tot_time_opt": 0, "max_time_opt": 0}, {"tot_cut_value": 0, "TOT_gen_cut": 0, "tot_time_opt": 0, "max_time_opt": 0}, {"tot_cut_value": 0, "TOT_gen_cut": 0, "tot_time_opt": 0, "max_time_opt": 0}], "time_compress": [0, 0, 0, 0, 0, 0, 0, 0], "ub_lp": [1340.1499999999996, 786.9548663610929, 586.3044347041382, 586.3034550541646, 586.0008390269539, 586.0008390269539, 586.000839026954, 586.000839026954], "prob_sizes_at_start": [{"timeGraph": 252, "ngGraph": 102}, {"timeGraph": 298, "ngGraph": 164}, {"timeGraph": 328, "ngGraph": 268}, {"timeGraph": 624, "ngGraph": 347}, {"timeGraph": 770, "ngGraph": 372}, {"timeGraph": 1008, "ngGraph": 384}, {"timeGraph": 958, "ngGraph": 405}, {"timeGraph": 965, "ngGraph": 391}], "prob_sizes_after_compress": [{"timeGraph": 59, "ngGraph": 49}, {"timeGraph": 141, "ngGraph": 92}, {"timeGraph": 190, "ngGraph": 101}, {"timeGraph": 170, "ngGraph": 100}, {"timeGraph": 273, "ngGraph": 118}, {"timeGraph": 301, "ngGraph": 124}, {"timeGraph": 342, "ngGraph": 92}, {"timeGraph": 294, "ngGraph": 63}], "prob_sizes_after_split": [{"timeGraph": 298, "ngGraph": 164}, {"timeGraph": 328, "ngGraph": 268}, {"timeGraph": 624, "ngGraph": 347}, {"timeGraph": 770, "ngGraph": 372}, {"timeGraph": 1008, "ngGraph": 384}, {"timeGraph": 958, "ngGraph": 405}, {"timeGraph": 965, "ngGraph": 391}, {"timeGraph": 577, "ngGraph": 165}], "did_compress": [true, true, true, true, true, true, true, true], "lp_time_project": [2.0895559787750244, 0.49123477935791016, 0.37088894844055176, 0.18900513648986816, 0.2795751094818115, 0.3947720527648926, 0.44271373748779297, 0.4487597942352295], "lp_time_LB": [0.601107120513916, 0.6239140033721924, 0.37610888481140137, 0.17460417747497559, 0.13175392150878906, 0.13759112358093262, 0.10712695121765137, 0.09014034271240234], "ilp_time": [], "history_of_graphs_by_iter": [], "ROOT_LP_PRIOR_ADDING_CUTS": 586.0008390269543, "OUR_ilp_objective": 588.7000000000003, "OUR_MIP_Lower_Bound": 588.7000000000002, "OUR_ilp_time": 0.08147287368774414, "OUR_gurobi_MILP_str": "Gurobi Optimizer version 12.0.1 build v12.0.1rc0 (mac64[arm] - Darwin 24.5.0 24F74)\n\nCPU model: Apple M1\nThread count: 8 physical cores, 8 logical processors, using up to 8 threads\n\nNon-default parameters:\nTimeLimit  1000\n\nWLS license 2690165 - registered to Optym\nOptimize a model with 36739 rows, 13199 columns and 132817 nonzeros\nModel fingerprint: 0x70d3db19\nVariable types: 202 continuous, 12997 integer (9400 binary)\nCoefficient statistics:\n  Matrix range     [4e-01, 3e+03]\n  Objective range  [2e+00, 1e+02]\n  Bounds range     [1e+00, 3e+03]\n  RHS range        [1e+00, 3e+03]\nUsing branch priorities.\nPresolve removed 36461 rows and 12851 columns\nPresolve time: 0.07s\nPresolved: 278 rows, 348 columns, 1589 nonzeros\nVariable types: 50 continuous, 298 integer (261 binary)\nFound heuristic solution: objective 641.7000000\n\nRoot relaxation: objective 5.887000e+02, 219 iterations, 0.00 seconds (0.00 work units)\n\n    Nodes    |    Current Node    |     Objective Bounds      |     Work\n Expl Unexpl |  Obj  Depth IntInf | Incumbent    BestBd   Gap | It/Node Time\n\n*    0     0               0     588.7000000  588.70000  0.00%     -    0s\n\nExplored 1 nodes (219 simplex iterations) in 0.08 seconds (0.11 work units)\nThread count was 8 (of 8 available processors)\n\nSolution count 2: 588.7 641.7 \n\nOptimal solution found (tolerance 1.00e-04)\nBest objective 5.887000000000e+02, best bound 5.887000000000e+02, gap 0.0000%\n", "jy_opt": {"ParetoEps": 1e-05, "turn_off_time_windows": false, "deactivate_time_graph": false, "deactivate_demand_graph": false, "epsilon": 0.0001, "weight_slack_projector": 1e-05, "weight_compress": 0.01, "num_cust_use": 100, "dem_step_sz": 1, "time_step_sz": 10, "use_compression": 1, "max_iterations_loop_compress_project": 50, "do_round_dist_times": 1, "my_shift_bet_time_win": 0.0001, "num_terms_per_bin_init_construct": 100, "allOneBig_init": 0, "min_inc_2_compress": 1e-05, "save_graph_each_iter": 0, "use_Xpress": 0, "use_ineq": false, "xpress_file_loc": "/Users/julian/Documents/FICO_Xpress_Config/xpauth.xpr", "run_baseline": 0, "verbose": 0, "use_NG_graph": 1, "num_NG": 9, "in_demo_mode": 0, "threshold_split": 0.1, "offset_cost_edge_project": 0, "use_classic_compress": 1, "use_classic_compress_last": 1, "num_thresh_split_projector": 1000, "lplb_solver": 4, "compresss_solver": 0, "proj_solver": 4, "use_julians_custom_lp_solver": 0, "do_ilp": 1, "roundingDiscretization_num_digits_keep": 3, "doExrtraRemovalEdgesLB": 0, "use_gurobi": 1, "max_ILP_time": 1000, "use_fancy_ng_graph": 1, "use_dem_graph": 0, "use_time_graph": 1, "num_multiplys_demand": 0, "DEBUG_ALLOW_DUMB_EDGES": 0, "add_all_ng_split_at_end": 0, "do_split_based_init": 0, "think_compress": [0], "use_delta_in_milp": 1, "use_delta_in_lp": 1, "turn_off_non_active_fg_project": 0, "use_new_valid_ineq": 0, "digit_mult_use": 10, "use_branch_on_g": true, "LAB_MP_ON": 0, "LAB_MP_neigh_use_power": 9, "LAB_MP_num_ineq_use": 10, "do_remove_actions_from_incumbant": true, "ub_use_remove": 588.7, "use_packing_in_construction": 1, "maxVarsAdd_in_ITER": 10, "use_ng_size_init": 0, "do_presolve": 0, "use_diving_ineq": 1, "BEND_MIN_LP_OBJECTIVE_CUT": 0.1, "BEND_USE_RAND": 0, "BEND_MAX_SIZE_CHOOSE_K": 230, "BEND_VAL_STOP_ADDING_CUTS": 100000000, "BEND_MY_SIZES_USE": [9], "NUMERICAL_BEND_OFFSET_COST_CUT": 0.0001, "NUMERICAL_BEND_EPSILON_MULT_PARETO_OBJ": 0.001, "NO_PARETO_NUMERICAL_BEND_OFFSET_COST_CUT": 0, "NO_PARETO_BEND_VAL_STOP_ADDING_CUTS": 1, "NO_PARETO_EPSILON_MAX_VAL_CON": 0.01, "BENDERS_NEIGH_SZ_USE": 9, "Actions_of_given_sol": [], "all_vars_binary": 1, "restore_after_each_step": 1, "use_ng": 1, "compress_solver": 1, "DEBUG_NG_turn_off_CLEAN": false, "max_nodes_split": Infinity}, "output_ilp_solution": {"delta_capRem_0": 52.0, "delta_timeRem_0": 2996.1, "delta_capRem_1": 55.0, "delta_timeRem_1": 3094.7, "delta_capRem_2": 35.0, "delta_timeRem_2": 2140.6, "delta_capRem_3": 34.0, "delta_timeRem_3": 2047.0, "delta_capRem_4": 58.0, "delta_timeRem_4": 3282.7, "delta_capRem_5": 56.0, "delta_timeRem_5": 2812.7, "delta_capRem_6": 37.0, "delta_timeRem_6": 2234.7, "delta_capRem_7": 4.0, "delta_timeRem_7": 343.0, "delta_capRem_8": 7.0, "delta_timeRem_8": 629.0, "delta_capRem_9": 5.0, "delta_timeRem_9": 439.0, "delta_capRem_10": 6.0, "delta_timeRem_10": 532.0, "delta_capRem_11": 22.0, "delta_timeRem_11": 1111.5, "delta_capRem_12": 14.0, "delta_timeRem_12": 825.2, "delta_capRem_13": 23.0, "delta_timeRem_13": 1204.5, "delta_capRem_14": 20.0, "delta_timeRem_14": 1014.5, "delta_capRem_15": 27.0, "delta_timeRem_15": 1296.5, "delta_capRem_16": 16.0, "delta_timeRem_16": 919.2, "delta_capRem_17": 30.0, "delta_timeRem_17": 1488.5, "delta_capRem_18": 28.0, "delta_timeRem_18": 1393.5, "delta_capRem_19": 63.0, "delta_timeRem_19": 3380.0, "delta_capRem_20": 2.0, "delta_timeRem_20": 102.0, "delta_capRem_21": 62.0, "delta_timeRem_21": 3287.2, "delta_capRem_22": 31.0, "delta_timeRem_22": 1588.1, "delta_capRem_23": 60.0, "delta_timeRem_23": 3193.6, "delta_capRem_24": 11.0, "delta_timeRem_24": 726.2, "delta_capRem_25": 32.0, "delta_timeRem_25": 1685.3, "delta_capRem_26": 59.0, "delta_timeRem_26": 3100.8, "delta_capRem_27": 34.0, "delta_timeRem_27": 1783.3, "delta_capRem_28": 57.0, "delta_timeRem_28": 2911.6, "delta_capRem_29": 58.0, "delta_timeRem_29": 3006.6, "delta_capRem_30": 47.0, "delta_timeRem_30": 2529.1, "delta_capRem_31": 54.0, "delta_timeRem_31": 2716.4, "delta_capRem_32": 51.0, "delta_timeRem_32": 2624.4, "delta_capRem_33": 36.0, "delta_timeRem_33": 1884.0, "delta_capRem_34": 45.0, "delta_timeRem_34": 2434.1, "delta_capRem_35": 37.0, "delta_timeRem_35": 1977.0, "delta_capRem_36": 44.0, "delta_timeRem_36": 2338.3, "delta_capRem_37": 42.0, "delta_timeRem_37": 2167.0, "delta_capRem_38": 39.0, "delta_timeRem_38": 2072.0, "delta_capRem_39": 29.0, "delta_timeRem_39": 1490.8, "delta_capRem_40": 3.0, "delta_timeRem_40": 472.0, "delta_capRem_41": 5.0, "delta_timeRem_41": 564.0, "delta_capRem_42": 2.0, "delta_timeRem_42": 196.8, "delta_capRem_43": 28.0, "delta_timeRem_43": 1396.4, "delta_capRem_44": 24.0, "delta_timeRem_44": 1204.7, "delta_capRem_45": 27.0, "delta_timeRem_45": 1301.1, "delta_capRem_46": 6.0, "delta_timeRem_46": 658.2, "delta_capRem_47": 1.0, "delta_timeRem_47": 101.0, "delta_capRem_48": 50.0, "delta_timeRem_48": 2342.3, "delta_capRem_49": 8.0, "delta_timeRem_49": 846.3, "delta_capRem_50": 9.0, "delta_timeRem_50": 938.5, "delta_capRem_51": 7.0, "delta_timeRem_51": 753.2, "delta_capRem_52": 44.0, "delta_timeRem_52": 2054.2, "delta_capRem_53": 48.0, "delta_timeRem_53": 2149.5, "delta_capRem_54": 49.0, "delta_timeRem_54": 2244.5, "delta_capRem_55": 42.0, "delta_timeRem_55": 1960.2, "delta_capRem_56": 33.0, "delta_timeRem_56": 1584.4, "delta_capRem_57": 39.0, "delta_timeRem_57": 1868.2, "delta_capRem_58": 34.0, "delta_timeRem_58": 1679.4, "delta_capRem_59": 36.0, "delta_timeRem_59": 1775.2, "delta_capRem_60": 56.0, "delta_timeRem_60": 2908.8, "delta_capRem_61": 64.0, "delta_timeRem_61": 3189.8, "delta_capRem_62": 69.0, "delta_timeRem_62": 3284.8, "delta_capRem_63": 55.0, "delta_timeRem_63": 2816.8, "delta_capRem_64": 51.0, "delta_timeRem_64": 2438.7, "delta_capRem_65": 54.0, "delta_timeRem_65": 2721.8, "delta_capRem_66": 70.0, "delta_timeRem_66": 3377.8, "delta_capRem_67": 52.0, "delta_timeRem_67": 2534.0, "delta_capRem_68": 53.0, "delta_timeRem_68": 2629.8, "delta_capRem_69": 16.0, "delta_timeRem_69": 986.8, "delta_capRem_70": 18.0, "delta_timeRem_70": 1081.8, "delta_capRem_71": 57.0, "delta_timeRem_71": 3001.8, "delta_capRem_72": 13.0, "delta_timeRem_72": 893.8, "delta_capRem_73": 62.0, "delta_timeRem_73": 3096.8, "delta_capRem_74": 57.0, "delta_timeRem_74": 3189.7, "delta_capRem_75": 19.0, "delta_timeRem_75": 1176.8, "delta_capRem_76": 5.0, "delta_timeRem_76": 408.2, "delta_capRem_77": 7.0, "delta_timeRem_77": 506.0, "delta_capRem_78": 11.0, "delta_timeRem_78": 699.9, "delta_capRem_79": 12.0, "delta_timeRem_79": 795.2, "delta_capRem_80": 10.0, "delta_timeRem_80": 604.6, "delta_capRem_81": 24.0, "delta_timeRem_81": 1382.7, "delta_capRem_82": 25.0, "delta_timeRem_82": 1475.7, "delta_capRem_83": 28.0, "delta_timeRem_83": 1666.7, "delta_capRem_84": 22.0, "delta_timeRem_84": 1278.5, "delta_capRem_85": 26.0, "delta_timeRem_85": 1571.7, "delta_capRem_86": 3.0, "delta_timeRem_86": 210.8, "delta_capRem_87": 31.0, "delta_timeRem_87": 1762.0, "delta_capRem_88": 33.0, "delta_timeRem_88": 1952.6, "delta_capRem_89": 1.0, "delta_timeRem_89": 111.0, "delta_capRem_90": 32.0, "delta_timeRem_90": 1857.0, "delta_capRem_91": 45.0, "delta_timeRem_91": 2613.3, "delta_capRem_92": 70.0, "delta_timeRem_92": 3381.8, "delta_capRem_93": 43.0, "delta_timeRem_93": 2519.7, "delta_capRem_94": 42.0, "delta_timeRem_94": 2426.1, "delta_capRem_95": 4.0, "delta_timeRem_95": 307.1, "delta_capRem_96": 48.0, "delta_timeRem_96": 2710.3, "delta_capRem_97": 39.0, "delta_timeRem_97": 2329.7, "delta_capRem_98": 51.0, "delta_timeRem_98": 2900.3, "delta_capRem_99": 50.0, "delta_timeRem_99": 2805.3, "act_0_98": 1, "act_1_0": 1, "act_2_3": 1, "act_3_88": 1, "act_4_74": 1, "act_5_31": 1, "act_6_2": 1, "act_7_20": 1, "act_8_10": 1, "act_9_7": 1, "act_10_9": 1, "act_11_14": 1, "act_12_24": 1, "act_13_11": 1, "act_14_16": 1, "act_15_13": 1, "act_16_12": 1, "act_17_18": 1, "act_18_15": 1, "act_19_21": 1, "act_20_101": 1, "act_21_23": 1, "act_22_17": 1, "act_23_26": 1, "act_24_8": 1, "act_25_22": 1, "act_26_29": 1, "act_27_25": 1, "act_28_5": 1, "act_29_28": 1, "act_30_34": 1, "act_31_32": 1, "act_32_30": 1, "act_33_27": 1, "act_34_36": 1, "act_35_33": 1, "act_36_37": 1, "act_37_38": 1, "act_38_35": 1, "act_39_43": 1, "act_40_42": 1, "act_41_40": 1, "act_42_47": 1, "act_43_45": 1, "act_44_50": 1, "act_45_44": 1, "act_46_41": 1, "act_47_101": 1, "act_48_54": 1, "act_49_51": 1, "act_50_49": 1, "act_51_46": 1, "act_52_55": 1, "act_53_52": 1, "act_54_53": 1, "act_55_57": 1, "act_56_39": 1, "act_57_59": 1, "act_58_56": 1, "act_59_58": 1, "act_60_63": 1, "act_61_73": 1, "act_62_61": 1, "act_63_65": 1, "act_64_48": 1, "act_65_68": 1, "act_66_62": 1, "act_67_64": 1, "act_68_67": 1, "act_69_72": 1, "act_70_69": 1, "act_71_60": 1, "act_72_79": 1, "act_73_71": 1, "act_74_1": 1, "act_75_70": 1, "act_76_95": 1, "act_77_76": 1, "act_78_80": 1, "act_79_78": 1, "act_80_77": 1, "act_81_84": 1, "act_82_81": 1, "act_83_85": 1, "act_84_75": 1, "act_85_82": 1, "act_86_89": 1, "act_87_83": 1, "act_88_90": 1, "act_89_101": 1, "act_90_87": 1, "act_91_93": 1, "act_92_4": 1, "act_93_94": 1, "act_94_97": 1, "act_95_86": 1, "act_96_91": 1, "act_97_6": 1, "act_98_99": 1, "act_99_96": 1, "act_100_19": 1, "act_100_66": 1, "act_100_92": 1}, "Actions_of_given_sol": "none just used source and sink terms", "actions_used": ["act_0_98", "act_1_0", "act_2_3", "act_3_88", "act_4_74", "act_5_31", "act_6_2", "act_7_20", "act_8_10", "act_9_7", "act_10_9", "act_11_14", "act_12_24", "act_13_11", "act_14_16", "act_15_13", "act_16_12", "act_17_18", "act_18_15", "act_19_21", "act_20_101", "act_21_23", "act_22_17", "act_23_26", "act_24_8", "act_25_22", "act_26_29", "act_27_25", "act_28_5", "act_29_28", "act_30_34", "act_31_32", "act_32_30", "act_33_27", "act_34_36", "act_35_33", "act_36_37", "act_37_38", "act_38_35", "act_39_43", "act_40_42", "act_41_40", "act_42_47", "act_43_45", "act_44_50", "act_45_44", "act_46_41", "act_47_101", "act_48_54", "act_49_51", "act_50_49", "act_51_46", "act_52_55", "act_53_52", "act_54_53", "act_55_57", "act_56_39", "act_57_59", "act_58_56", "act_59_58", "act_60_63", "act_61_73", "act_62_61", "act_63_65", "act_64_48", "act_65_68", "act_66_62", "act_67_64", "act_68_67", "act_69_72", "act_70_69", "act_71_60", "act_72_79", "act_73_71", "act_74_1", "act_75_70", "act_76_95", "act_77_76", "act_78_80", "act_79_78", "act_80_77", "act_81_84", "act_82_81", "act_83_85", "act_84_75", "act_85_82", "act_86_89", "act_87_83", "act_88_90", "act_89_101", "act_90_87", "act_91_93", "act_92_4", "act_93_94", "act_94_97", "act_95_86", "act_96_91", "act_97_6", "act_98_99", "act_99_96", "act_100_19", "act_100_66", "act_100_92"], "init_default_solution_is_empty": false, "objective_of_initial_sol": 5934.400000000003, "my_paths": "[[100, 19, 21, 23, 26, 29, 28, 5, 31, 32, 30, 34, 36, 37, 38, 35, 33, 27, 25, 22, 17, 18, 15, 13, 11, 14, 16, 12, 24, 8, 10, 9, 7, 20, 101], [100, 66, 62, 61, 73, 71, 60, 63, 65, 68, 67, 64, 48, 54, 53, 52, 55, 57, 59, 58, 56, 39, 43, 45, 44, 50, 49, 51, 46, 41, 40, 42, 47, 101], [100, 92, 4, 74, 1, 0, 98, 99, 96, 91, 93, 94, 97, 6, 2, 3, 88, 90, 87, 83, 85, 82, 81, 84, 75, 70, 69, 72, 79, 78, 80, 77, 76, 95, 86, 89, 101]]"}